% demand
num_movements = 24;
loading_factor = [1350, 1300, 1500, 1100, 850, 1100, 1050, 1150, 1600, 1500, 1900, 1350, 1000, 1700, 1800, 1850, 850, 850, 950, 1400, 1650, 1800, 1950, 950];
pickup_time = [0, 0, 0, 0, 1, 2, 2, 2, 3, 5, 5, 5, 5, 6, 7, 7, 7, 8, 8, 9, 9, 9, 9, 10];
delivery_time = [4, 2, 2, 3, 2, 4, 4, 4, 4, 9, 6, 6, 9, 7, 8, 9, 8, 9, 9, 10, 10, 11, 11, 11];

% transporter definition
total_capacity = 7000;
num_decks = 3;
capacity = [3000, 1000, 3000];

% ways out of decks
num_ways_out = 1;
paths_out = array3d(decks, ways_out, decks, [
% ways out of deck d1
2, 3, 0, 

% ways out of deck d2
3, 0, 0, 

% ways out of deck d3
0, 0, 0,	

]);

